c read Graph
c width = 27
c time = 531 ms
c width = 5
c time = 767 ms
c width = 5
c time = 3929 ms
s td 36 6 40
b 1 1 2 9
b 2 2 3 9 10
b 3 6 7 15 16
b 4 3 9 10 17
b 5 6 15 16 24
b 6 17 25 26 34
b 7 24 31 32 39
b 8 17 26 34 35
b 9 24 31 38 39
b 10 3 4 5 12
b 11 3 10 11 17 18
b 12 6 14 15 23 24
b 13 5 6 14 23 24
b 14 17 18 26 27 35
b 15 23 24 30 31 38
b 16 17 18 27 35 36
b 17 29 36 37 38
b 18 5 12 13 14 21
b 19 14 21 22 23 30
b 20 5 14 23 24 30 38
b 21 5 14 21 23 30 38
b 22 5 12 14 21 30 38
b 23 5 12 21 29 30 38
b 24 3 5 12 21 29 38
b 25 3 12 20 21 29 38
b 26 3 11 12 20 29 38
b 27 11 18 19 20 27
b 28 20 27 28 29 36
b 29 3 11 20 29 36 38
b 30 3 11 17 18 27 36
b 31 3 11 18 20 27 36
b 32 3 11 20 27 29 36
b 33 20 27 29 36
b 34 32 39 40
b 35 25 33 34
b 36 7 8 16
1 2
2 4
3 36
3 5
4 11
5 12
6 35
6 8
7 34
7 9
8 14
9 15
10 24
11 30
12 13
13 20
14 16
15 20
16 30
17 29
18 22
19 21
20 21
21 22
22 23
23 24
24 25
25 26
26 29
27 31
28 33
29 32
30 31
31 32
32 33
